[ 0. 18. 10. 16. 12. 21. 23. 15. 25.  3.  6.  7.  4. 20. 25. 20. 12.  3.
 12. 14. 26.  9. 22. 20.  9. 13. 21. 10.  8.  5. 14.  7. 21. 20.  1. 21.
 17.  2. 64. 16.  2. 28. 16. 39. 35. 43. 44. 37. 17. 34. 45. 11. 35. 21.
 41. 51. 17. 36. 20. 35. 37. 17. 46. 40. 43. 40. 29. 45.  0. 42. 30. 17.
 46.  0. 51.  5.  0. 18. 10. 16. 12. 21. 23. 15. 25.  3.  6.  7.  4. 20.
 25. 20. 12.  3. 12. 14. 26.  9. 22. 20.  9. 13. 21. 10.  8.  5. 14.  7.
 21. 20.  1. 21. 17.  2.]